c WARNING: for repeatability, setting FPU to use double precision
d VARIABLES            195090       
d CONSTRAINTS          892323       
c ============================[ Problem Statistics ]=============================
c |                                                                             |
c |  Number of variables:        195090                                         |
c |  Number of clauses:          892323                                         |
c |  Parse time:                   0.15 s                                       |
c |                                                                             |
c ============================[ Search Statistics ]==============================
c | Conflicts |          ORIGINAL         |          LEARNT          | Progress |
c |           |    Vars  Clauses Literals |    Limit  Clauses Lit/Cl |          |
c ===============================================================================
c |       100 |  172317   827631  1999042 |   303464      100     12 | 11.673 % |
c |       250 |  172317   827631  1999042 |   333811      250     17 | 11.673 % |
c |       475 |  172317   827631  1999042 |   367192      475     44 | 11.673 % |
c |       812 |  172317   827631  1999042 |   403911      812     57 | 11.673 % |
c |      1318 |  172317   827631  1999042 |   444302     1318    112 | 11.673 % |
c |      2077 |  172317   827631  1999042 |   488732     2077    113 | 11.673 % |
c |      3216 |  172317   827631  1999042 |   537606     3216    125 | 11.673 % |
c |      4924 |  172317   827631  1999042 |   591366     4924    121 | 11.673 % |
c |      7486 |  172317   827631  1999042 |   650503     7486    137 | 11.673 % |
c |     11330 |  172317   827631  1999042 |   715553    11330    154 | 11.673 % |
c |     17096 |  172317   827631  1999042 |   787109    17096    143 | 11.673 % |
c |     25745 |  172317   827631  1999042 |   865820    25745    138 | 11.673 % |
c |     38719 |  172317   827631  1999042 |   952402    38719    137 | 11.673 % |
c |     58180 |  172317   827631  1999042 |  1047642    58180    140 | 11.673 % |
c |     87372 |  172317   827631  1999042 |  1152406    87372    145 | 11.673 % |
c |    131161 |  172317   827631  1999042 |  1267647   131161    152 | 11.673 % |
c |    196845 |  172317   827631  1999042 |  1394412   196845    151 | 11.673 % |
c |    295371 |  172317   827631  1999042 |  1533853   295371    158 | 11.673 % |
c |    443160 |  172317   827631  1999042 |  1687238   443160    155 | 11.673 % |
c |    664843 |  172317   827631  1999042 |  1855962   664843    152 | 11.673 % |
c |    997368 |  172317   827631  1999042 |  2041558   997368    151 | 11.673 % |
c |   1496156 |  172317   827631  1999042 |  2245714  1496156    148 | 11.673 % |
c ===============================================================================
c restarts              : 3579
c conflicts             : 1833203        (1023 /sec)
c decisions             : 4846964        (0.00 % random) (2704 /sec)
c propagations          : 3796841127     (2118262 /sec)
c conflict literals     : 270425993      (41.28 % deleted)
d RESTARTS             3579
d FAILURES             1833203      
d NODES                4846964      
d BACKTRACKS           4846964      
d PROPAGATIONS         3796841127   
d NOGOODSIZE           147.52 
d MEMORY               1625.00 
d TIME                 1792.43 

s UNKNOWN
